(set-info :smt-lib-version 2.6)
(set-logic LRA)
(set-info :source |
   Scholl, Christoph; Disch, Stefan; Pigorsch, Florian and Kupferschmid, 
   Stefan; Using an SMT Solver and Craig Interpolation to Detect and Remove 
   Redundant Linear Constraints in Representations of Non-Convex Polyhedra.
   Proceedings of 6th International Workshop on Satisfiability Modulo
   Theories, Princeton, USA, July 2008.
   <http://abs.informatik.uni-freiburg.de/smtbench/>
|)
(set-info :category "industrial")
(set-info :status sat)
(declare-fun lambda () Real)
(declare-fun lambdaprime () Real)
(declare-fun x4 () Real)
(declare-fun x3 () Real)
(declare-fun bool.b17 () Bool)
(declare-fun bool.b18 () Bool)
(declare-fun bool.b19 () Bool)
(declare-fun bool.b20 () Bool)
(declare-fun bool.b21 () Bool)
(declare-fun bool.b22 () Bool)
(declare-fun bool.b23 () Bool)
(declare-fun bool.b24 () Bool)
(assert (forall ((?lambda Real)) (let ((?v_2 (+ x4 (* 40 ?lambda))) (?v_4 (not bool.b22)) (?v_5 (not bool.b23)) (?v_6 (not bool.b20)) (?v_7 (not bool.b19)) (?v_8 (not bool.b18)) (?v_9 (not bool.b17)) (?v_13 (+ x3 (* (- 1) ?lambda)))) (let ((?v_0 (* 1 ?v_13))) (let ((?v_10 (<= ?v_0 0)) (?v_11 (<= (+ ?v_0 (* (/ 1 15) ?v_2)) (/ 964 3)))) (let ((?v_26 (not ?v_11))) (let ((?v_1 (not (and ?v_10 ?v_26)))) (let ((?v_58 (not (and bool.b19 ?v_1))) (?v_55 (not (and bool.b18 ?v_1))) (?v_38 (not (and bool.b17 ?v_1))) (?v_3 (+ ?v_0 (* (/ 1 40) ?v_2)))) (let ((?v_33 (<= ?v_3 200))) (let ((?v_63 (not (and (not (and bool.b20 ?v_1)) (not (and ?v_6 (not (and ?v_58 (not (and ?v_7 (not (and ?v_55 (not (and ?v_8 (not (and ?v_38 (not (and ?v_9 (not (and ?v_33 (not (<= ?v_3 (/ 241 2))))))))))))))))))))))) (let ((?v_64 (not (and (not (and bool.b23 ?v_1)) (not (and ?v_5 ?v_63))))) (?v_25 (* (- 1) ?v_2))) (let ((?v_21 (<= ?v_25 (- 4500))) (?v_34 (* (/ (- 1) 20) ?v_2))) (let ((?v_12 (+ ?v_0 ?v_34))) (let ((?v_20 (and (<= ?v_12 (- 205)) (not (<= ?v_12 (- 209)))))) (let ((?v_14 (not ?v_20)) (?v_17 (* (- 1) ?v_13))) (let ((?v_37 (<= ?v_17 (- 30)))) (let ((?v_16 (not ?v_37)) (?v_22 (not ?v_10)) (?v_15 (+ ?v_0 (* (/ (- 1) 80) ?v_2)))) (let ((?v_18 (<= ?v_15 (/ (- 161) 4))) (?v_19 (not (<= ?v_17 (- 20))))) (let ((?v_39 (not (and (not ?v_21) (not (and (not (and ?v_10 (and ?v_11 (not (and (not (and (not (<= ?v_0 30)) ?v_14)) (not (and ?v_16 ?v_14))))))) (not (and ?v_22 (not (and (not (and (not ?v_18) (not (and (<= ?v_15 (/ (- 145) 4)) (and ?v_16 (not (and ?v_19 ?v_14))))))) (not (and ?v_18 (not (and ?v_19 ?v_20))))))))))))) (?v_56 (not (and ?v_10 ?v_11))) (?v_24 (<= ?v_0 20)) (?v_23 (+ ?v_0 (* (/ 3 20) ?v_2)))) (let ((?v_28 (<= ?v_23 1200))) (let ((?v_40 (not (and ?v_24 (and (not (and ?v_28 (not (<= ?v_23 723)))) (not (and ?v_11 (not (<= (+ ?v_0 (* (/ 1 20) ?v_2)) 241)))))))) (?v_41 (not ?v_24)) (?v_27 (+ ?v_0 (* (/ 3 40) ?v_2)))) (let ((?v_44 (not (<= ?v_27 (/ 703 2)))) (?v_45 (<= ?v_27 610)) (?v_30 (<= ?v_27 359))) (let ((?v_48 (not ?v_30)) (?v_49 (not (<= ?v_27 (/ 743 2)))) (?v_29 (<= ?v_0 40))) (let ((?v_32 (and ?v_29 ?v_28)) (?v_36 (not ?v_29))) (let ((?v_47 (not (and ?v_36 ?v_30)))) (let ((?v_54 (not (and ?v_44 (and ?v_45 (and (not (and ?v_48 (not (and ?v_49 ?v_32)))) ?v_47))))) (?v_59 (not (<= ?v_3 (/ 261 2)))) (?v_60 (<= ?v_3 (/ 650 3))) (?v_31 (<= ?v_3 133))) (let ((?v_61 (not ?v_31)) (?v_62 (<= ?v_3 (/ 823 6)))) (let ((?v_42 (not (and ?v_11 (not (and ?v_59 (and ?v_60 (and (not (and ?v_61 (not (and ?v_29 (not ?v_62))))) (not (and ?v_31 (not ?v_32)))))))))) (?v_43 (not (<= ?v_25 (- 4910)))) (?v_35 (<= ?v_0 45))) (let ((?v_50 (not (and (not ?v_35) (not (<= (+ ?v_17 ?v_34) (/ (- 581) 2)))))) (?v_53 (and ?v_36 (not (and (<= (+ ?v_0 (* (/ 1 60) ?v_2)) (/ 400 3)) (<= (+ ?v_17 (* (/ (- 1) 60) ?v_2)) (/ (- 731) 6))))))) (let ((?v_52 (not ?v_53)) (?v_51 (not (<= ?v_0 33))) (?v_57 (<= (+ ?v_17 (* (/ (- 1) 40) ?v_2)) (/ (- 623) 4)))) (let ((?v_46 (not (and ?v_50 (not (and ?v_35 (not (and ?v_52 (not (and ?v_29 (not (and ?v_51 (and ?v_37 ?v_57))))))))))))) (or (or (exists ((?lambdaprime Real)) (let ((?v_66 (* (- 1) (+ x4 (* 40 ?lambdaprime)))) (?v_67 (* 1 (+ x3 (* (- 1) ?lambdaprime))))) (let ((?v_65 (not (<= ?v_67 33)))) (and (and (<= 0 ?lambdaprime) (<= ?lambdaprime ?lambda)) (not (and (and (and (not (and bool.b17 (not (and (not (<= ?v_66 (- 4100))) ?v_65)))) (not (and bool.b18 (not (and ?v_65 (not (<= ?v_66 (- 4500)))))))) (not (and bool.b19 (not (and ?v_65 (not (<= ?v_66 (- 4910)))))))) (not (and bool.b20 (<= ?v_67 20))))))))) (< ?lambda 0)) (and (not (and bool.b21 (and (not (and bool.b22 ?v_1)) (not (and ?v_4 ?v_64))))) (not (and (not bool.b21) (and (not (and ?v_4 (not (and (not (and ?v_5 (not (and (not (and ?v_6 (not (and (not (and ?v_7 (not (and (not (and ?v_8 (not (and (not (and ?v_9 ?v_1)) (not (and bool.b17 (not (and ?v_39 (not (and ?v_21 (not (and ?v_56 (not (and ?v_22 (not (and (not (and (not bool.b24) (not (and ?v_40 (not (and ?v_41 (not (and (<= ?v_25 (- 4100)) (and (not (and ?v_26 ?v_54)) ?v_42))))))))) (not (and bool.b24 (not (and ?v_33 (not (and ?v_43 ?v_46)))))))))))))))))))))) (not (and bool.b18 (not (and ?v_38 (not (and ?v_9 (not (and ?v_39 (not (and ?v_21 (not (and ?v_40 (not (and ?v_41 (not (and ?v_42 (not (and ?v_26 (not (and (not (and ?v_43 (not (and ?v_44 (and (not (and (not ?v_45) ?v_46)) (not (and ?v_45 (not (and ?v_47 (not (and ?v_48 (not (and ?v_49 (and (not (and (not ?v_28) (not (and ?v_50 (not (and ?v_35 (not (and ?v_51 ?v_52)))))))) (not (and ?v_28 (not (and ?v_50 (not (and ?v_35 ?v_53)))))))))))))))))))) (not (and (not ?v_33) ?v_54)))))))))))))))))))))))))) (not (and bool.b19 (not (and ?v_55 (not (and ?v_8 (not (and ?v_38 (not (and ?v_9 (not (and ?v_56 (not (and ?v_22 (not (and ?v_33 (not (and ?v_43 (not ?v_57))))))))))))))))))))))) (not (and bool.b20 (not (and ?v_58 (not (and ?v_7 (not (and ?v_55 (not (and ?v_8 (not (and ?v_38 (not (and ?v_9 (not (and ?v_40 (not (and ?v_41 (not (and ?v_59 (and ?v_60 (not (and ?v_61 ?v_62))))))))))))))))))))))))))) (not (and bool.b23 ?v_63)))))) (not (and bool.b22 ?v_64))))))))))))))))))))))))))))))))))))))
(check-sat)
(exit)
